data/lp_files/q3/83_3.lp
\ Model foo
\ LP format - for model browsing. Use MPS format to capture full model detail.
Minimize
  z
Subject To
 allocateEach[1]: x[1,1] + x[2,1] + x[3,1] + x[4,1] + x[5,1] = 1
 allocateEach[2]: x[1,2] + x[2,2] + x[3,2] + x[4,2] + x[5,2] = 1
 allocateEach[3]: x[1,3] + x[2,3] + x[3,3] + x[4,3] + x[5,3] = 1
 allocateAllCash: cashProportion[1] + cashProportion[2] + cashProportion[3]
   + cashProportion[4] + cashProportion[5] = 1
 findWorstP[1,2]: z + 0.0984785070658329 cashProportion[1]
   - 0.0984785070658329 cashProportion[2] + 0.3727411492441774 x[1,1]
   + 0.1134964793933724 x[1,2] + 0.4152838642966172 x[1,3]
   - 0.3727411492441774 x[2,1] - 0.1134964793933724 x[2,2]
   - 0.4152838642966172 x[2,3] >= 0
 findWorstP[1,3]: z + 0.0984785070658329 cashProportion[1]
   - 0.0984785070658329 cashProportion[3] + 0.3727411492441774 x[1,1]
   + 0.1134964793933724 x[1,2] + 0.4152838642966172 x[1,3]
   - 0.3727411492441774 x[3,1] - 0.1134964793933724 x[3,2]
   - 0.4152838642966172 x[3,3] >= 0
 findWorstP[1,4]: z + 0.0984785070658329 cashProportion[1]
   - 0.0984785070658329 cashProportion[4] + 0.3727411492441774 x[1,1]
   + 0.1134964793933724 x[1,2] + 0.4152838642966172 x[1,3]
   - 0.3727411492441774 x[4,1] - 0.1134964793933724 x[4,2]
   - 0.4152838642966172 x[4,3] >= 0
 findWorstP[1,5]: z + 0.0984785070658329 cashProportion[1]
   - 0.0984785070658329 cashProportion[5] + 0.3727411492441774 x[1,1]
   + 0.1134964793933724 x[1,2] + 0.4152838642966172 x[1,3]
   - 0.3727411492441774 x[5,1] - 0.1134964793933724 x[5,2]
   - 0.4152838642966172 x[5,3] >= 0
 findWorstP[2,1]: z - 0.1378929950358522 cashProportion[1]
   + 0.1378929950358522 cashProportion[2] - 0.1244484280198566 x[1,1]
   - 0.2514478764478765 x[1,2] - 0.4862107004964148 x[1,3]
   + 0.1244484280198566 x[2,1] + 0.2514478764478765 x[2,2]
   + 0.4862107004964148 x[2,3] >= 0
 findWorstP[2,3]: z + 0.1378929950358522 cashProportion[2]
   - 0.1378929950358522 cashProportion[3] + 0.1244484280198566 x[2,1]
   + 0.2514478764478765 x[2,2] + 0.4862107004964148 x[2,3]
   - 0.1244484280198566 x[3,1] - 0.2514478764478765 x[3,2]
   - 0.4862107004964148 x[3,3] >= 0
 findWorstP[2,4]: z + 0.1378929950358522 cashProportion[2]
   - 0.1378929950358522 cashProportion[4] + 0.1244484280198566 x[2,1]
   + 0.2514478764478765 x[2,2] + 0.4862107004964148 x[2,3]
   - 0.1244484280198566 x[4,1] - 0.2514478764478765 x[4,2]
   - 0.4862107004964148 x[4,3] >= 0
 findWorstP[2,5]: z + 0.1378929950358522 cashProportion[2]
   - 0.1378929950358522 cashProportion[5] + 0.1244484280198566 x[2,1]
   + 0.2514478764478765 x[2,2] + 0.4862107004964148 x[2,3]
   - 0.1244484280198566 x[5,1] - 0.2514478764478765 x[5,2]
   - 0.4862107004964148 x[5,3] >= 0
 findWorstP[3,1]: z - 0.0822706705059646 cashProportion[1]
   + 0.0822706705059646 cashProportion[3] - 0.290909090909091 x[1,1]
   - 0.2263677498971617 x[1,2] - 0.4004524886877828 x[1,3]
   + 0.290909090909091 x[3,1] + 0.2263677498971617 x[3,2]
   + 0.4004524886877828 x[3,3] >= 0
 findWorstP[3,2]: z - 0.0822706705059646 cashProportion[2]
   + 0.0822706705059646 cashProportion[3] - 0.290909090909091 x[2,1]
   - 0.2263677498971617 x[2,2] - 0.4004524886877828 x[2,3]
   + 0.290909090909091 x[3,1] + 0.2263677498971617 x[3,2]
   + 0.4004524886877828 x[3,3] >= 0
 findWorstP[3,4]: z + 0.0822706705059646 cashProportion[3]
   - 0.0822706705059646 cashProportion[4] + 0.290909090909091 x[3,1]
   + 0.2263677498971617 x[3,2] + 0.4004524886877828 x[3,3]
   - 0.290909090909091 x[4,1] - 0.2263677498971617 x[4,2]
   - 0.4004524886877828 x[4,3] >= 0
 findWorstP[3,5]: z + 0.0822706705059646 cashProportion[3]
   - 0.0822706705059646 cashProportion[5] + 0.290909090909091 x[3,1]
   + 0.2263677498971617 x[3,2] + 0.4004524886877828 x[3,3]
   - 0.290909090909091 x[5,1] - 0.2263677498971617 x[5,2]
   - 0.4004524886877828 x[5,3] >= 0
 findWorstP[4,1]: z - 0.2082465639316952 cashProportion[1]
   + 0.2082465639316952 cashProportion[4] - 0.4483548521449396 x[1,1]
   - 0.1849229487713453 x[1,2] - 0.15847563515202 x[1,3]
   + 0.4483548521449396 x[4,1] + 0.1849229487713453 x[4,2]
   + 0.15847563515202 x[4,3] >= 0
 findWorstP[4,2]: z - 0.2082465639316952 cashProportion[2]
   + 0.2082465639316952 cashProportion[4] - 0.4483548521449396 x[2,1]
   - 0.1849229487713453 x[2,2] - 0.15847563515202 x[2,3]
   + 0.4483548521449396 x[4,1] + 0.1849229487713453 x[4,2]
   + 0.15847563515202 x[4,3] >= 0
 findWorstP[4,3]: z - 0.2082465639316952 cashProportion[3]
   + 0.2082465639316952 cashProportion[4] - 0.4483548521449396 x[3,1]
   - 0.1849229487713453 x[3,2] - 0.15847563515202 x[3,3]
   + 0.4483548521449396 x[4,1] + 0.1849229487713453 x[4,2]
   + 0.15847563515202 x[4,3] >= 0
 findWorstP[4,5]: z + 0.2082465639316952 cashProportion[4]
   - 0.2082465639316952 cashProportion[5] + 0.4483548521449396 x[4,1]
   + 0.1849229487713453 x[4,2] + 0.15847563515202 x[4,3]
   - 0.4483548521449396 x[5,1] - 0.1849229487713453 x[5,2]
   - 0.15847563515202 x[5,3] >= 0
 findWorstP[5,1]: z - 0.0870625108828139 cashProportion[1]
   + 0.0870625108828139 cashProportion[5] - 0.2311074351384294 x[1,1]
   - 0.3720616402577051 x[1,2] - 0.3097684137210517 x[1,3]
   + 0.2311074351384294 x[5,1] + 0.3720616402577051 x[5,2]
   + 0.3097684137210517 x[5,3] >= 0
 findWorstP[5,2]: z - 0.0870625108828139 cashProportion[2]
   + 0.0870625108828139 cashProportion[5] - 0.2311074351384294 x[2,1]
   - 0.3720616402577051 x[2,2] - 0.3097684137210517 x[2,3]
   + 0.2311074351384294 x[5,1] + 0.3720616402577051 x[5,2]
   + 0.3097684137210517 x[5,3] >= 0
 findWorstP[5,3]: z - 0.0870625108828139 cashProportion[3]
   + 0.0870625108828139 cashProportion[5] - 0.2311074351384294 x[3,1]
   - 0.3720616402577051 x[3,2] - 0.3097684137210517 x[3,3]
   + 0.2311074351384294 x[5,1] + 0.3720616402577051 x[5,2]
   + 0.3097684137210517 x[5,3] >= 0
 findWorstP[5,4]: z - 0.0870625108828139 cashProportion[4]
   + 0.0870625108828139 cashProportion[5] - 0.2311074351384294 x[4,1]
   - 0.3720616402577051 x[4,2] - 0.3097684137210517 x[4,3]
   + 0.2311074351384294 x[5,1] + 0.3720616402577051 x[5,2]
   + 0.3097684137210517 x[5,3] >= 0
Bounds
 z <= 1
 -infinity <= cashProportion[1] <= 1
 -infinity <= cashProportion[2] <= 1
 -infinity <= cashProportion[3] <= 1
 -infinity <= cashProportion[4] <= 1
 -infinity <= cashProportion[5] <= 1
Binaries
 x[1,1] x[1,2] x[1,3] x[2,1] x[2,2] x[2,3] x[3,1] x[3,2] x[3,3] x[4,1]
 x[4,2] x[4,3] x[5,1] x[5,2] x[5,3]
End
