data/mps_files/q3/83_3.mps
NAME foo
ROWS
 N  OBJ
 E  allocateEach[1]
 E  allocateEach[2]
 E  allocateEach[3]
 E  allocateAllCash
 G  findWorstP[1,2]
 G  findWorstP[1,3]
 G  findWorstP[1,4]
 G  findWorstP[1,5]
 G  findWorstP[2,1]
 G  findWorstP[2,3]
 G  findWorstP[2,4]
 G  findWorstP[2,5]
 G  findWorstP[3,1]
 G  findWorstP[3,2]
 G  findWorstP[3,4]
 G  findWorstP[3,5]
 G  findWorstP[4,1]
 G  findWorstP[4,2]
 G  findWorstP[4,3]
 G  findWorstP[4,5]
 G  findWorstP[5,1]
 G  findWorstP[5,2]
 G  findWorstP[5,3]
 G  findWorstP[5,4]
COLUMNS
    z         OBJ       1
    z         findWorstP[1,2]  1
    z         findWorstP[1,3]  1
    z         findWorstP[1,4]  1
    z         findWorstP[1,5]  1
    z         findWorstP[2,1]  1
    z         findWorstP[2,3]  1
    z         findWorstP[2,4]  1
    z         findWorstP[2,5]  1
    z         findWorstP[3,1]  1
    z         findWorstP[3,2]  1
    z         findWorstP[3,4]  1
    z         findWorstP[3,5]  1
    z         findWorstP[4,1]  1
    z         findWorstP[4,2]  1
    z         findWorstP[4,3]  1
    z         findWorstP[4,5]  1
    z         findWorstP[5,1]  1
    z         findWorstP[5,2]  1
    z         findWorstP[5,3]  1
    z         findWorstP[5,4]  1
    cashProportion[1]  allocateAllCash  1
    cashProportion[1]  findWorstP[1,2]  9.8478507065832874e-02
    cashProportion[1]  findWorstP[1,3]  9.8478507065832874e-02
    cashProportion[1]  findWorstP[1,4]  9.8478507065832874e-02
    cashProportion[1]  findWorstP[1,5]  9.8478507065832874e-02
    cashProportion[1]  findWorstP[2,1]  -1.3789299503585220e-01
    cashProportion[1]  findWorstP[3,1]  -8.2270670505964635e-02
    cashProportion[1]  findWorstP[4,1]  -2.0824656393169516e-01
    cashProportion[1]  findWorstP[5,1]  -8.7062510882813859e-02
    cashProportion[2]  allocateAllCash  1
    cashProportion[2]  findWorstP[1,2]  -9.8478507065832874e-02
    cashProportion[2]  findWorstP[2,1]  1.3789299503585220e-01
    cashProportion[2]  findWorstP[2,3]  1.3789299503585220e-01
    cashProportion[2]  findWorstP[2,4]  1.3789299503585220e-01
    cashProportion[2]  findWorstP[2,5]  1.3789299503585220e-01
    cashProportion[2]  findWorstP[3,2]  -8.2270670505964635e-02
    cashProportion[2]  findWorstP[4,2]  -2.0824656393169516e-01
    cashProportion[2]  findWorstP[5,2]  -8.7062510882813859e-02
    cashProportion[3]  allocateAllCash  1
    cashProportion[3]  findWorstP[1,3]  -9.8478507065832874e-02
    cashProportion[3]  findWorstP[2,3]  -1.3789299503585220e-01
    cashProportion[3]  findWorstP[3,1]  8.2270670505964635e-02
    cashProportion[3]  findWorstP[3,2]  8.2270670505964635e-02
    cashProportion[3]  findWorstP[3,4]  8.2270670505964635e-02
    cashProportion[3]  findWorstP[3,5]  8.2270670505964635e-02
    cashProportion[3]  findWorstP[4,3]  -2.0824656393169516e-01
    cashProportion[3]  findWorstP[5,3]  -8.7062510882813859e-02
    cashProportion[4]  allocateAllCash  1
    cashProportion[4]  findWorstP[1,4]  -9.8478507065832874e-02
    cashProportion[4]  findWorstP[2,4]  -1.3789299503585220e-01
    cashProportion[4]  findWorstP[3,4]  -8.2270670505964635e-02
    cashProportion[4]  findWorstP[4,1]  2.0824656393169516e-01
    cashProportion[4]  findWorstP[4,2]  2.0824656393169516e-01
    cashProportion[4]  findWorstP[4,3]  2.0824656393169516e-01
    cashProportion[4]  findWorstP[4,5]  2.0824656393169516e-01
    cashProportion[4]  findWorstP[5,4]  -8.7062510882813859e-02
    cashProportion[5]  allocateAllCash  1
    cashProportion[5]  findWorstP[1,5]  -9.8478507065832874e-02
    cashProportion[5]  findWorstP[2,5]  -1.3789299503585220e-01
    cashProportion[5]  findWorstP[3,5]  -8.2270670505964635e-02
    cashProportion[5]  findWorstP[4,5]  -2.0824656393169516e-01
    cashProportion[5]  findWorstP[5,1]  8.7062510882813859e-02
    cashProportion[5]  findWorstP[5,2]  8.7062510882813859e-02
    cashProportion[5]  findWorstP[5,3]  8.7062510882813859e-02
    cashProportion[5]  findWorstP[5,4]  8.7062510882813859e-02
    MARKER    'MARKER'                 'INTORG'
    x[1,1]    allocateEach[1]  1
    x[1,1]    findWorstP[1,2]  3.7274114924417739e-01
    x[1,1]    findWorstP[1,3]  3.7274114924417739e-01
    x[1,1]    findWorstP[1,4]  3.7274114924417739e-01
    x[1,1]    findWorstP[1,5]  3.7274114924417739e-01
    x[1,1]    findWorstP[2,1]  -1.2444842801985660e-01
    x[1,1]    findWorstP[3,1]  -2.9090909090909095e-01
    x[1,1]    findWorstP[4,1]  -4.4835485214493964e-01
    x[1,1]    findWorstP[5,1]  -2.3110743513842941e-01
    x[1,2]    allocateEach[2]  1
    x[1,2]    findWorstP[1,2]  1.1349647939337239e-01
    x[1,2]    findWorstP[1,3]  1.1349647939337239e-01
    x[1,2]    findWorstP[1,4]  1.1349647939337239e-01
    x[1,2]    findWorstP[1,5]  1.1349647939337239e-01
    x[1,2]    findWorstP[2,1]  -2.5144787644787647e-01
    x[1,2]    findWorstP[3,1]  -2.2636774989716169e-01
    x[1,2]    findWorstP[4,1]  -1.8492294877134530e-01
    x[1,2]    findWorstP[5,1]  -3.7206164025770505e-01
    x[1,3]    allocateEach[3]  1
    x[1,3]    findWorstP[1,2]  4.1528386429661723e-01
    x[1,3]    findWorstP[1,3]  4.1528386429661723e-01
    x[1,3]    findWorstP[1,4]  4.1528386429661723e-01
    x[1,3]    findWorstP[1,5]  4.1528386429661723e-01
    x[1,3]    findWorstP[2,1]  -4.8621070049641485e-01
    x[1,3]    findWorstP[3,1]  -4.0045248868778283e-01
    x[1,3]    findWorstP[4,1]  -0.15847563515202
    x[1,3]    findWorstP[5,1]  -3.0976841372105174e-01
    x[2,1]    allocateEach[1]  1
    x[2,1]    findWorstP[1,2]  -3.7274114924417739e-01
    x[2,1]    findWorstP[2,1]  1.2444842801985660e-01
    x[2,1]    findWorstP[2,3]  1.2444842801985660e-01
    x[2,1]    findWorstP[2,4]  1.2444842801985660e-01
    x[2,1]    findWorstP[2,5]  1.2444842801985660e-01
    x[2,1]    findWorstP[3,2]  -2.9090909090909095e-01
    x[2,1]    findWorstP[4,2]  -4.4835485214493964e-01
    x[2,1]    findWorstP[5,2]  -2.3110743513842941e-01
    x[2,2]    allocateEach[2]  1
    x[2,2]    findWorstP[1,2]  -1.1349647939337239e-01
    x[2,2]    findWorstP[2,1]  2.5144787644787647e-01
    x[2,2]    findWorstP[2,3]  2.5144787644787647e-01
    x[2,2]    findWorstP[2,4]  2.5144787644787647e-01
    x[2,2]    findWorstP[2,5]  2.5144787644787647e-01
    x[2,2]    findWorstP[3,2]  -2.2636774989716169e-01
    x[2,2]    findWorstP[4,2]  -1.8492294877134530e-01
    x[2,2]    findWorstP[5,2]  -3.7206164025770505e-01
    x[2,3]    allocateEach[3]  1
    x[2,3]    findWorstP[1,2]  -4.1528386429661723e-01
    x[2,3]    findWorstP[2,1]  4.8621070049641485e-01
    x[2,3]    findWorstP[2,3]  4.8621070049641485e-01
    x[2,3]    findWorstP[2,4]  4.8621070049641485e-01
    x[2,3]    findWorstP[2,5]  4.8621070049641485e-01
    x[2,3]    findWorstP[3,2]  -4.0045248868778283e-01
    x[2,3]    findWorstP[4,2]  -0.15847563515202
    x[2,3]    findWorstP[5,2]  -3.0976841372105174e-01
    x[3,1]    allocateEach[1]  1
    x[3,1]    findWorstP[1,3]  -3.7274114924417739e-01
    x[3,1]    findWorstP[2,3]  -1.2444842801985660e-01
    x[3,1]    findWorstP[3,1]  2.9090909090909095e-01
    x[3,1]    findWorstP[3,2]  2.9090909090909095e-01
    x[3,1]    findWorstP[3,4]  2.9090909090909095e-01
    x[3,1]    findWorstP[3,5]  2.9090909090909095e-01
    x[3,1]    findWorstP[4,3]  -4.4835485214493964e-01
    x[3,1]    findWorstP[5,3]  -2.3110743513842941e-01
    x[3,2]    allocateEach[2]  1
    x[3,2]    findWorstP[1,3]  -1.1349647939337239e-01
    x[3,2]    findWorstP[2,3]  -2.5144787644787647e-01
    x[3,2]    findWorstP[3,1]  2.2636774989716169e-01
    x[3,2]    findWorstP[3,2]  2.2636774989716169e-01
    x[3,2]    findWorstP[3,4]  2.2636774989716169e-01
    x[3,2]    findWorstP[3,5]  2.2636774989716169e-01
    x[3,2]    findWorstP[4,3]  -1.8492294877134530e-01
    x[3,2]    findWorstP[5,3]  -3.7206164025770505e-01
    x[3,3]    allocateEach[3]  1
    x[3,3]    findWorstP[1,3]  -4.1528386429661723e-01
    x[3,3]    findWorstP[2,3]  -4.8621070049641485e-01
    x[3,3]    findWorstP[3,1]  4.0045248868778283e-01
    x[3,3]    findWorstP[3,2]  4.0045248868778283e-01
    x[3,3]    findWorstP[3,4]  4.0045248868778283e-01
    x[3,3]    findWorstP[3,5]  4.0045248868778283e-01
    x[3,3]    findWorstP[4,3]  -0.15847563515202
    x[3,3]    findWorstP[5,3]  -3.0976841372105174e-01
    x[4,1]    allocateEach[1]  1
    x[4,1]    findWorstP[1,4]  -3.7274114924417739e-01
    x[4,1]    findWorstP[2,4]  -1.2444842801985660e-01
    x[4,1]    findWorstP[3,4]  -2.9090909090909095e-01
    x[4,1]    findWorstP[4,1]  4.4835485214493964e-01
    x[4,1]    findWorstP[4,2]  4.4835485214493964e-01
    x[4,1]    findWorstP[4,3]  4.4835485214493964e-01
    x[4,1]    findWorstP[4,5]  4.4835485214493964e-01
    x[4,1]    findWorstP[5,4]  -2.3110743513842941e-01
    x[4,2]    allocateEach[2]  1
    x[4,2]    findWorstP[1,4]  -1.1349647939337239e-01
    x[4,2]    findWorstP[2,4]  -2.5144787644787647e-01
    x[4,2]    findWorstP[3,4]  -2.2636774989716169e-01
    x[4,2]    findWorstP[4,1]  1.8492294877134530e-01
    x[4,2]    findWorstP[4,2]  1.8492294877134530e-01
    x[4,2]    findWorstP[4,3]  1.8492294877134530e-01
    x[4,2]    findWorstP[4,5]  1.8492294877134530e-01
    x[4,2]    findWorstP[5,4]  -3.7206164025770505e-01
    x[4,3]    allocateEach[3]  1
    x[4,3]    findWorstP[1,4]  -4.1528386429661723e-01
    x[4,3]    findWorstP[2,4]  -4.8621070049641485e-01
    x[4,3]    findWorstP[3,4]  -4.0045248868778283e-01
    x[4,3]    findWorstP[4,1]  0.15847563515202
    x[4,3]    findWorstP[4,2]  0.15847563515202
    x[4,3]    findWorstP[4,3]  0.15847563515202
    x[4,3]    findWorstP[4,5]  0.15847563515202
    x[4,3]    findWorstP[5,4]  -3.0976841372105174e-01
    x[5,1]    allocateEach[1]  1
    x[5,1]    findWorstP[1,5]  -3.7274114924417739e-01
    x[5,1]    findWorstP[2,5]  -1.2444842801985660e-01
    x[5,1]    findWorstP[3,5]  -2.9090909090909095e-01
    x[5,1]    findWorstP[4,5]  -4.4835485214493964e-01
    x[5,1]    findWorstP[5,1]  2.3110743513842941e-01
    x[5,1]    findWorstP[5,2]  2.3110743513842941e-01
    x[5,1]    findWorstP[5,3]  2.3110743513842941e-01
    x[5,1]    findWorstP[5,4]  2.3110743513842941e-01
    x[5,2]    allocateEach[2]  1
    x[5,2]    findWorstP[1,5]  -1.1349647939337239e-01
    x[5,2]    findWorstP[2,5]  -2.5144787644787647e-01
    x[5,2]    findWorstP[3,5]  -2.2636774989716169e-01
    x[5,2]    findWorstP[4,5]  -1.8492294877134530e-01
    x[5,2]    findWorstP[5,1]  3.7206164025770505e-01
    x[5,2]    findWorstP[5,2]  3.7206164025770505e-01
    x[5,2]    findWorstP[5,3]  3.7206164025770505e-01
    x[5,2]    findWorstP[5,4]  3.7206164025770505e-01
    x[5,3]    allocateEach[3]  1
    x[5,3]    findWorstP[1,5]  -4.1528386429661723e-01
    x[5,3]    findWorstP[2,5]  -4.8621070049641485e-01
    x[5,3]    findWorstP[3,5]  -4.0045248868778283e-01
    x[5,3]    findWorstP[4,5]  -0.15847563515202
    x[5,3]    findWorstP[5,1]  3.0976841372105174e-01
    x[5,3]    findWorstP[5,2]  3.0976841372105174e-01
    x[5,3]    findWorstP[5,3]  3.0976841372105174e-01
    x[5,3]    findWorstP[5,4]  3.0976841372105174e-01
    MARKER    'MARKER'                 'INTEND'
RHS
    RHS1      allocateEach[1]  1
    RHS1      allocateEach[2]  1
    RHS1      allocateEach[3]  1
    RHS1      allocateAllCash  1
BOUNDS
 UP BND1      z         1
 MI BND1      cashProportion[1]
 UP BND1      cashProportion[1]  1
 MI BND1      cashProportion[2]
 UP BND1      cashProportion[2]  1
 MI BND1      cashProportion[3]
 UP BND1      cashProportion[3]  1
 MI BND1      cashProportion[4]
 UP BND1      cashProportion[4]  1
 MI BND1      cashProportion[5]
 UP BND1      cashProportion[5]  1
 BV BND1      x[1,1]  
 BV BND1      x[1,2]  
 BV BND1      x[1,3]  
 BV BND1      x[2,1]  
 BV BND1      x[2,2]  
 BV BND1      x[2,3]  
 BV BND1      x[3,1]  
 BV BND1      x[3,2]  
 BV BND1      x[3,3]  
 BV BND1      x[4,1]  
 BV BND1      x[4,2]  
 BV BND1      x[4,3]  
 BV BND1      x[5,1]  
 BV BND1      x[5,2]  
 BV BND1      x[5,3]  
ENDATA
